1552
60 83 2 85 99 79 17 22 72 48 31 98 36 4 3 62 57 28 80 34 81 15 52 32 13 65 93 45 94 46 1 90 47 49 89 20 75 87 50 63 77 8 29 70 61 68 18 88 41 92 91 14 76 66 43 25 21 51 56 40 16 97 95 39 7 12 27 44 42 35 26 54 74 6 38 96 24 55 69 10 33 78 59 53 9 67 19 11 58 5 73 84 37 86 64 71 23 30 82 
